 # Version information for this restart file 
 # current date 2023-01-25 03:28:54.125
 # current working dir /cygdrive/c/DATA/work/w23_CP2K/MD_LJ
 # Program compiled at                              Sun Aug 14 20:01:09 JST 2022
 # Program compiled on                                           DESKTOP-2FK7NUA
 # Program compiled for                             Cygwin-x86_64-gfortran-pexsi
 # Source code revision number                                       git:2caeb6f
 &GLOBAL
   PROJECT_NAME ar108
   RUN_TYPE  MD
 &END GLOBAL
 &MOTION
   &MD
     ENSEMBLE  NVE
     STEPS  100
     TIMESTEP     4.9999999999999991E+00
     STEP_START_VAL  100
     TIME_START_VAL     4.9999999999999949E+02
     ECONS_START_VAL    -1.6331454346504920E-01
     TEMPERATURE     8.5000000000000000E+01
     &AVERAGES  T
       &RESTART_AVERAGES
         ITIMES_START  1
         AVECPU     2.5812059560366842E-02
         AVEHUGONIOT     0.0000000000000000E+00
         AVETEMP_BARO     0.0000000000000000E+00
         AVEPOT    -2.0900419504174234E-01
         AVEKIN     4.5687588415533539E-02
         AVETEMP     8.9887739223985804E+01
         AVEKIN_QM     0.0000000000000000E+00
         AVETEMP_QM     0.0000000000000000E+00
         AVEVOL     3.4087613522108550E+04
         AVECELL_A     3.2423920988051862E+01
         AVECELL_B     3.2423920988051862E+01
         AVECELL_C     3.2423920988051862E+01
         AVEALPHA     9.0000000000000000E+01
         AVEBETA     9.0000000000000000E+01
         AVEGAMMA     9.0000000000000000E+01
         AVE_ECONS    -6.0147678561826559E-03
         AVE_PRESS     0.0000000000000000E+00
         AVE_PXX     0.0000000000000000E+00
       &END RESTART_AVERAGES
     &END AVERAGES
   &END MD
 &END MOTION
 &FORCE_EVAL
   METHOD  FIST
   &MM
     &FORCEFIELD
       &NONBONDED
         &LENNARD-JONES
           ATOMS Ar Ar
           EPSILON     1.1980000000000000E+02
           SIGMA     3.4049999999999998E+00
           RCUT     8.4000000000000004E+00
         &END LENNARD-JONES
       &END NONBONDED
       &CHARGE
         ATOM Ar
         CHARGE     0.0000000000000000E+00
       &END CHARGE
     &END FORCEFIELD
     &POISSON
       &EWALD
         EWALD_TYPE  NONE
       &END EWALD
     &END POISSON
   &END MM
   &SUBSYS
     &CELL
       A     1.7158000000000001E+01    0.0000000000000000E+00    0.0000000000000000E+00
       B     0.0000000000000000E+00    1.7158000000000001E+01    0.0000000000000000E+00
       C     0.0000000000000000E+00    0.0000000000000000E+00    1.7158000000000001E+01
       MULTIPLE_UNIT_CELL  1 1 1
     &END CELL
     &COORD
Ar   -8.7389296783566337E+00   -1.5372146458577101E+01    2.4789320553662741E+00
Ar    8.8442121843701926E-01    9.5087202923160685E+00    1.1176113053990044E+01
Ar    1.1694708268525046E+01   -7.6461466377369200E+00   -1.0725166194000721E+01
Ar   -1.2373361932549205E+01   -3.2868945521384005E+00    4.3970296169733363E+00
Ar   -1.3591396820729329E+00   -8.7874038000269239E-01    1.3661857550034016E+01
Ar    8.3391751124994631E+00   -2.7835215863043272E+00   -4.2613872336009342E+00
Ar    8.5797090126315307E+00    3.4935277524386970E+00    5.6274096726718756E+00
Ar   -3.6693973165696083E+00   -1.0255288571183852E+01   -7.1980680687630443E+00
Ar   -3.1668957511930538E+00   -1.5666175844227013E+01    1.6067531038003406E+01
Ar    9.2486532970680848E+00   -1.6704529948595241E+01   -5.7762897761113940E+00
Ar    4.3213314016291915E-01   -4.1476732335820037E+00    1.2788357866096428E+01
Ar    1.5839113916918819E+01   -8.2342068281503398E+00    1.5513443706765138E+00
Ar   -4.7710192656386230E+00   -2.2853806127619429E+00   -9.2581475969651505E-01
Ar   -4.0205503020360689E-01   -2.0026873265954594E+00   -6.8963629318132496E+00
Ar    8.0046178730184305E+00   -6.0595822535277719E+00   -1.2046583021621730E+01
Ar   -5.1874293601228816E+00    7.1172148110859057E-01    1.4554427118807722E+00
Ar   -1.1922431706828865E+01    3.3575282293490529E+00    3.5348249365435342E+00
Ar    1.7178167613936974E+01   -7.1515270303506968E+00   -1.3870645149719252E+00
Ar   -1.9933186895966262E+01   -5.7284449016795138E+00    4.7884259321186420E+00
Ar    1.5576456068658635E+01   -1.2877062928110348E+00   -1.6157889760765748E+01
Ar    8.7919171181491613E+00   -8.1718198904774422E+00   -4.0532565716501958E+00
Ar    1.2009193933930018E+01   -1.5475881786371084E+00    1.2998868437636071E+01
Ar   -1.8510673428982305E-01   -1.1408465684479554E+01    2.0067132080955858E+01
Ar    1.8484196297515980E+00    6.0561260086539592E+00   -1.1525135749255432E+01
Ar   -1.4461440928140687E+01    8.9263098537335033E+00    7.9969976494968869E+00
Ar   -1.0205455230039570E+01    6.2884662150842834E+00   -1.5509732879229540E+01
Ar   -3.1827860078234549E+00   -2.1045738255433360E+01    1.1462989293767786E+01
Ar   -1.8281249881321088E+01   -1.1437039885113455E+01   -5.0356126783877357E+00
Ar    4.9629189910052052E+00   -6.8852976217808184E+00   -6.6559972946836208E+00
Ar    3.4118815746361078E+00   -1.0582827449199337E+01    2.0334034461636721E+00
Ar   -1.6335135272878041E+01   -4.9862101586937069E+00    8.8212746138210996E+00
Ar   -6.3652951046337138E+00    4.9151084189699921E+00    2.9913947090926833E+00
Ar    6.4552320197757247E+00    2.7334472602787425E+01    1.5382929541180191E+01
Ar   -2.7383028906160156E+00    2.2930694320917706E+01   -1.6698781960500995E+01
Ar   -4.3157487236841492E+00    9.2382913616676525E+00    1.6386993205098726E+01
Ar   -7.8003626974218570E+00   -9.5836615411955055E+00   -2.9452434784141452E+01
Ar    6.5368306656615205E-01    1.3411600678078727E+01   -9.2648453262228081E-01
Ar   -6.3299863367329250E+00   -5.3051493956475406E+00   -2.1124714416930601E+01
Ar    2.2915935326866073E+01    6.4932990827789849E+00   -1.9311117406458267E+00
Ar    1.9814109037358207E+01   -1.0245406247155852E+01   -3.6237747725484795E+00
Ar   -5.8739985737313793E-01    6.5945175447171724E+00    8.6055575200392980E+00
Ar    4.8190956693069227E+00    3.2167500768968754E-01    5.4264340261195843E-01
Ar   -3.4583752591978634E+00    3.4770342871600910E+00    2.6204382639659794E+01
Ar   -3.7622211317878740E-01    2.0220167947457853E+01   -3.1043007342506947E+00
Ar    2.6281356738026354E+00    6.2859830259573657E-01    9.9992282451178873E+00
Ar    3.9761927347055663E+00   -3.1381231497349744E+00   -6.2334978581388603E+00
Ar   -5.2634279097691232E+00   -6.7927748512516946E+00   -6.8426062686453895E+00
Ar   -2.2574613175458595E+01   -2.8682571484724637E+01    7.0048107569319926E+00
Ar    3.0270952412165406E+00    2.9939885267163411E+00   -1.1541896809614847E+00
Ar    1.5558249198374455E+01    2.4353564027600543E+00    1.7062179970507989E+00
Ar    2.0211302019731491E+01    1.6399478584273979E+01    1.3749173175182790E+01
Ar   -2.8499862091341178E+01    3.3143807922540249E+00   -8.4714174831936493E+00
Ar   -6.6381879431163897E+00   -1.6357378420830305E+01   -8.9896625203527183E+00
Ar    9.8683176370577783E+00    1.6497611290900700E+01    4.8699077272486937E+00
Ar   -7.6400351205192711E+00    6.3019571153389853E+00   -1.7089853982458778E+00
Ar   -1.1916297500559940E+01   -1.0395080010274226E+01   -6.2406224536799195E+00
Ar   -7.9090934777134256E+00    1.3235503947789351E+01   -1.4022036026797494E-01
Ar   -2.4951867230269023E+01    3.8745053192413286E+00   -7.8345196201347669E+00
Ar    2.4241367678513472E+00   -1.2620575200600518E+01   -7.7469799983323941E+00
Ar   -1.3945970595040077E+01    1.1201405294638487E+01   -2.8249210005803804E+00
Ar    1.2928767110727778E+01    6.0635736157845690E+00   -2.7826904265654342E+00
Ar   -1.3780377107437463E+01    1.5681477519012473E+01    7.3345536312100110E+00
Ar   -3.9740761262689976E+00   -1.9227690632967480E+01    2.1223664099971046E+01
Ar   -7.9877207592911583E+00    1.6889374509217500E+01   -1.7490528252854759E+01
Ar    2.7007318306147277E-01    1.0141980361038639E+01    2.3005800270063617E+01
Ar   -2.4063095616567773E+00   -7.8555995976751971E+00   -2.1695352344633541E+01
Ar   -5.9940307106054593E+00   -4.9866118452302350E+00    2.4287053914905727E+00
Ar   -3.6796130073299724E+00   -1.4438408737370512E+01   -4.8630377229750641E+00
Ar   -2.8053537377553035E+01    2.9393485996059954E-01   -3.1542112124343085E+00
Ar   -2.3980126806867261E+00    7.7560764971954423E+00    5.0287266575354916E+00
Ar   -9.1063794813883092E+00   -5.9592390077466142E+00   -8.3855843885039700E+00
Ar   -1.1806588750612981E+01   -2.9901806911481685E+00   -1.3901973392821674E+00
Ar    2.2883456406835460E+01    1.1282358132381930E+01    1.8472958158613060E+00
Ar    6.1736391273635034E+00   -4.4099286273189314E-01   -6.8576295575159376E+00
Ar    3.4096635878821373E+00   -8.4294537758852375E+00   -6.1963172976450864E-01
Ar    6.2436486976558181E-01    1.7872024720591540E+01   -1.7771080461103786E+01
Ar    2.1131092105554011E+01    1.0504447483366427E+01   -1.2460617976555055E+01
Ar    7.1111153536093452E-01    5.8513063627796695E+00    1.6427185355094117E+01
Ar   -6.3830523926143155E+00    6.2245830877163479E+00   -2.2510180842647443E+01
Ar   -1.0281296582985997E+00    1.8093027965496482E+01    7.4226469021811878E+00
Ar    1.5237253569917582E+01    1.0244112016357095E+01   -8.0941062063481226E+00
Ar   -6.9333352844027498E+00   -1.4485597932586170E+01    1.4955503493972358E+01
Ar   -2.9104477596450882E+00   -5.0465382851816756E+00   -2.3669015307801669E+00
Ar    4.5783520965705238E+00   -2.2153996262239179E+01    7.5759603244239138E+00
Ar   -9.5593007644309314E+00   -2.5620446338276759E+00    2.6300000817142246E+00
Ar    6.2970207055754468E+00    1.5775610637675275E-01    5.3981740205290905E+00
Ar    1.2125586075025302E+01    8.8551431106218974E+00    2.8502385399990406E+00
Ar   -1.4236955062516584E+01   -4.2775988750104099E-01   -1.3320988076779020E+01
Ar    1.4862272546589953E+01   -2.8493925480969327E+00    2.4733557560553606E+01
Ar   -3.5613846804556615E+00   -1.6856841097901373E-01   -7.0794864374468069E+00
Ar    6.6677990112956609E+00    3.2164972353145829E+00   -5.0982916803027623E-01
Ar   -6.2350913204556824E-01   -1.7098183619526569E+01   -1.3024282596804237E+01
Ar   -9.2821235316358344E+00   -9.7053057632066349E+00   -8.9430570794461772E+00
Ar   -6.0885308825141209E+00   -4.0611347511460760E+00   -1.0845597717031428E+01
Ar    1.2583017854106107E+00    1.3781985099727784E+01    5.2313257432776812E+00
Ar    8.8280080655864417E+00    9.2984386692568552E+00    1.0156418685561563E+00
Ar   -6.1930269364245794E+00   -1.9814188775610482E+01   -7.6340578742348262E+00
Ar   -6.6699353361920577E-01    1.9784887052969836E+01    1.0625599957329056E+01
Ar    7.8320447195000202E+00   -2.7260101366068441E+00    7.4424770842804460E+00
Ar    1.4549217690041568E+01    1.2386620645849520E+01    1.2709182572476332E+00
Ar   -4.7351781246092379E+00    1.9214607717046469E+01   -1.2066597302723736E+01
Ar    1.8720335619477846E+00   -5.9579658487949363E+00    1.8798705734866283E+00
Ar    1.9200672298138862E+01    2.5692887524877834E+00    2.5675081244886777E+00
Ar    5.3104913647148448E+00   -1.0487511228759427E+01    5.4855415989325493E+00
Ar    4.3260686125986849E+00    3.3627348876812975E+00   -4.4676919276196383E+00
Ar    2.8431139299096451E+00    2.3686000325671985E+00    6.4232957968429885E+00
Ar    2.4953616536674510E+01    4.4562140336776279E+00    1.2729323097193086E+01
Ar   -1.1523685079660451E+00    4.0351867477370069E+00    5.6524731259060648E+00
     &END COORD
     &VELOCITY
          -8.1994950575106247E-05    9.2535703325074959E-05    6.1178150100292834E-05
          -8.4344537953647819E-05    1.8695519558083435E-05    4.7548291688150785E-05
           8.9062607121860878E-05   -1.1900605667247495E-05    3.8976999644191928E-05
           9.3440616687413049E-06    1.2267325663612176E-05    6.9673219950067903E-06
          -2.6552824288079470E-05   -6.5363566690935460E-05    6.3146485037564957E-05
          -5.5659041910072401E-05    3.1621634783266988E-05   -3.4254302264652030E-05
          -1.4350780794040394E-05   -6.0526550039252239E-05   -5.7670179731073891E-05
           9.8162085848416835E-05   -8.3933995646845878E-05   -1.1606933202306528E-04
           1.9104254356758747E-04   -1.5562065545484816E-05    3.9755113324596114E-05
          -5.3221462603746106E-05    1.1408343266110018E-05    3.7791035665792926E-06
          -2.8043109986732418E-05   -3.7462227877446521E-05   -4.5878619697797509E-05
           9.5527803557690584E-05   -3.0344150703373566E-06   -1.2331634347064954E-04
           1.6734983813771456E-05    2.9044215343753664E-05    6.5761978598440261E-05
           4.1540939687545907E-05   -2.5766848525501356E-06    7.7493663117029492E-05
           1.0339641975145080E-05   -1.2433772947247347E-04    7.0632426119887731E-05
          -9.9941903577028748E-05   -3.0791223356017869E-05   -4.2270158747265015E-05
           5.5131551886583862E-05    7.4832852365846962E-05   -7.7341359971503415E-05
           2.1321942932051011E-05    2.2478487553757909E-05   -1.1943183762616189E-04
          -3.1544720805103560E-05    4.4758132540272601E-05   -1.2074539464140409E-05
           1.3570351005932308E-04    3.2941551770253513E-05    1.4050446927335383E-05
           1.9879318347683837E-05    9.7672730360226652E-05    1.4740242397113960E-05
           4.5708437540503052E-05    7.2458893512443548E-05   -1.3799167729616110E-05
           6.2192045290134195E-05    7.7774913688917607E-05   -1.3959190973096835E-05
          -1.8455423844905469E-04   -3.6862465790619258E-05   -1.9998234702674336E-05
           5.6357779924934425E-06   -2.9615678957896968E-05    1.3172744575575037E-04
          -6.7150971127659875E-05   -1.1591021336637935E-04   -4.9491233082328785E-05
           8.4801372881466969E-06    1.5079982374507055E-04   -2.5268295635023971E-05
          -5.9745557209753156E-05   -3.9766132653679032E-08   -7.5057342562748585E-06
           1.0226746132348611E-05    5.3897859788744340E-05    3.0815169686946642E-06
           6.2815400139214569E-05   -8.7805223673835683E-05   -2.5934594653122509E-05
           4.0773553575768542E-05   -2.5415828055769857E-05   -3.3470770365937027E-05
          -2.5645082051408862E-05    3.4142940113289062E-05   -1.2870280012321576E-05
          -3.5892689934491707E-05   -2.8992592945216123E-05    3.9345126435431932E-05
          -6.2568749303765480E-05    4.1643283253647968E-05    3.7955335807684826E-05
          -1.0821815696494016E-04   -8.4554727084749305E-05    3.4126591732484841E-05
          -1.4519633514603077E-04   -2.3836740661888155E-05   -1.7530905873349436E-05
           9.6462051750863969E-05   -8.2549844987380127E-05    2.9260944479591911E-05
          -5.5408711498990450E-05   -4.0594642742612956E-05   -4.2897737076011539E-05
          -7.0358121321138783E-05   -1.4074678038521594E-05    5.9839553521331752E-06
          -1.5486478538700593E-05   -3.0265877080290255E-05   -2.5846148155049416E-05
           1.1667849984856894E-05   -1.1319768293018473E-04   -7.9483089848793984E-05
          -1.1112159912746355E-04    8.3381390148720046E-05   -5.5280109514223989E-05
          -8.1292891490500690E-05   -1.8112146643039297E-05    1.6314778521507928E-05
          -1.8870338414770633E-05   -1.8021786957534327E-05   -4.0687432852770884E-05
           1.4867085985058221E-05    1.0080603644112660E-04    3.4757925139236512E-05
           3.9212760861730042E-05   -1.4610140732191489E-05    1.8654824239004275E-04
          -1.4393708957646766E-05   -2.8787853562933290E-05   -9.4261221927093209E-05
           8.8460010553583889E-05   -6.2174642193757175E-05   -8.9300680396452303E-05
           1.5353518858174524E-07    1.2248377621169236E-04   -7.1590993736690562E-05
           1.6838799686855640E-06   -1.4441518450667527E-04   -6.1069630620792478E-05
           5.4475919694755183E-05   -3.5501768666153946E-05    4.7344393042814915E-05
          -7.8975531481708384E-05    1.3974643309366065E-04    3.5247312532754433E-05
          -1.0038855240382856E-04   -9.2677950047909084E-05    3.8168008734353143E-05
          -6.9288700662530767E-05   -5.6638225619658890E-05   -1.0803666427041890E-04
           2.5229316519903107E-05   -5.7248327515477878E-06   -1.4000248590496320E-05
           9.5203840155631483E-05   -2.5233942686447725E-05   -1.7832262338612677E-05
          -7.9475893476192548E-05    6.6142723796066611E-05   -2.1425307070930960E-06
           1.8729134372513672E-05    5.2007056296154813E-06    7.9319575028689613E-05
           4.7344873301279229E-06    9.1247587857784494E-05   -3.4681768410671934E-05
          -4.9240181496973859E-05   -9.1282061097030577E-05    8.2474700825764897E-06
           1.0254463005340956E-04    9.0486809442121214E-05    1.0128451674653396E-04
          -8.0029911969228056E-05    7.6541389128532807E-05    4.1951771201951507E-05
           1.4327456083813789E-05    1.6050429483625165E-05   -4.1001310813512253E-05
          -4.6826977510016018E-06   -3.6035040657491049E-05   -1.4822939751629648E-05
           4.0780766501149743E-06    5.3013202481231328E-05    9.9561939139704769E-05
           8.3863475956776182E-05    9.9888087847356928E-05   -1.3445004236074740E-05
           8.7617022667043113E-05    6.2221353694414441E-05    4.5001897435098997E-05
          -4.5899767434273176E-05    8.9401193771991515E-05    3.5032612897766108E-05
           5.9372754806285590E-05    3.1873588716393284E-06   -1.3493686026260421E-05
          -6.1722642458079198E-05    8.2846208899991190E-05    5.0860646189911747E-06
          -3.7260395556909343E-05    4.7124035784942275E-05    6.6034174604069008E-05
           6.8413179062422317E-05   -8.7526940592737759E-05    1.0174390994672820E-04
           6.2294620388849420E-05   -5.4346619682430801E-05    2.7382192393071340E-05
          -2.8206604609846730E-05   -5.9981874828059068E-05    2.6143893976355169E-05
           9.6225402760826610E-05   -7.2719190696159065E-05    8.4130302683408298E-06
           4.1460804856147522E-05   -1.2450073518654983E-05    1.8606005005839311E-05
          -3.2573789343770998E-05   -3.1141062329894981E-05    4.1488165914968714E-05
           1.9581845359922964E-05    9.4929848552123802E-06   -1.2646991935412488E-04
           3.9611480162302386E-05    8.5320695297889366E-06   -8.4901674147576175E-05
          -1.4674051251577943E-04    2.9396447258361411E-05   -4.7269954866718048E-05
          -2.7632278705414456E-05    1.5768324065845558E-04   -6.6007514315356044E-05
          -5.1601918204819665E-06    1.0616219202812476E-04    4.9232169048231755E-06
          -7.5356115961086018E-05   -2.5955837696061990E-05    1.9152507785813864E-05
          -1.7174546947755531E-05    2.8555578712603055E-07   -4.8945896321728285E-05
           5.3244661545454261E-05   -2.9269057862165889E-05    7.9353760619828309E-05
          -5.4522160684138484E-05   -2.6600886168213753E-05   -4.5402290770401677E-05
           3.2186547224731566E-05   -7.2402072594533970E-05    9.2191825763353989E-05
           3.0917213010011711E-05    1.6686165940009460E-06    5.9695844899571310E-05
          -7.1890567324224157E-05   -7.3585923649798534E-07    1.0353202735243706E-04
          -1.7508963844572388E-05    5.0940144041171714E-05    6.5485320195357673E-06
          -1.3434671985668655E-04   -3.9199332969422191E-06   -3.6302495011909195E-05
           7.8506721384467715E-05   -1.9598765411492696E-05    6.3589489152976293E-05
           1.3354620399822225E-05    1.1598217391671277E-04    1.9431200277008777E-05
           8.1727547889076730E-05    5.4388268578144020E-05   -1.1801752122095369E-05
           1.3131652165172000E-04   -2.9966092470277316E-05   -9.2804129306147686E-05
           4.8887472975287580E-06   -4.4892897096838401E-05   -3.0554354747427559E-05
           5.3789383298908651E-06    5.0809125630970851E-05    1.2031141805052573E-05
           4.4098467838703321E-05   -1.1037024727839859E-04    3.0785009639862480E-05
           3.9000413381445481E-05   -1.2968016385812183E-05    3.1529161430964661E-05
           1.0887017959213095E-04   -6.3054526345858774E-06   -4.1055393048324049E-06
          -2.7044389009008475E-05    1.8969680448034240E-05    5.2003779286185478E-05
          -6.5219143197995088E-05   -6.0885061657636007E-06   -1.7636019153057106E-05
           3.2574151749790966E-05    4.7403201091012982E-05    4.0423242182078458E-05
           1.1159031491063549E-04   -1.0978204033520912E-04   -5.5562527934324960E-05
          -7.1371119796052071E-05   -8.6633515852894792E-05   -1.6442788045517713E-05
           2.8223988838154300E-05   -4.8719365046534002E-05    3.2069590740055791E-05
          -1.0969189049031905E-05    2.8997908024045653E-05   -9.8734295829817776E-05
          -2.1535215256337213E-05   -7.8659631688928752E-05   -4.5499657745166593E-05
     &END VELOCITY
     &TOPOLOGY
       NUMBER_OF_ATOMS  108
       MULTIPLE_UNIT_CELL  1 1 1
     &END TOPOLOGY
   &END SUBSYS
 &END FORCE_EVAL
