 # Version information for this restart file 
 # current date 2023-01-25 03:28:52.584
 # current working dir /cygdrive/c/DATA/work/w23_CP2K/MD_LJ
 # Program compiled at                              Sun Aug 14 20:01:09 JST 2022
 # Program compiled on                                           DESKTOP-2FK7NUA
 # Program compiled for                             Cygwin-x86_64-gfortran-pexsi
 # Source code revision number                                       git:2caeb6f
 &GLOBAL
   PROJECT_NAME ar108
   RUN_TYPE  MD
 &END GLOBAL
 &MOTION
   &MD
     ENSEMBLE  NVE
     STEPS  100
     TIMESTEP     4.9999999999999991E+00
     STEP_START_VAL  40
     TIME_START_VAL     2.0000000000000011E+02
     ECONS_START_VAL    -1.6331454346504920E-01
     TEMPERATURE     8.5000000000000000E+01
     &AVERAGES  T
       &RESTART_AVERAGES
         ITIMES_START  1
         AVECPU     2.6018526749157899E-02
         AVEHUGONIOT     0.0000000000000000E+00
         AVETEMP_BARO     0.0000000000000000E+00
         AVEPOT    -2.0808986608404431E-01
         AVEKIN     4.4773423412077067E-02
         AVETEMP     8.8089171422791679E+01
         AVEKIN_QM     0.0000000000000000E+00
         AVETEMP_QM     0.0000000000000000E+00
         AVEVOL     3.4087613522108550E+04
         AVECELL_A     3.2423920988051862E+01
         AVECELL_B     3.2423920988051862E+01
         AVECELL_C     3.2423920988051862E+01
         AVEALPHA     9.0000000000000000E+01
         AVEBETA     9.0000000000000000E+01
         AVEGAMMA     9.0000000000000000E+01
         AVE_ECONS    -5.5090161580753274E-03
         AVE_PRESS     0.0000000000000000E+00
         AVE_PXX     0.0000000000000000E+00
       &END RESTART_AVERAGES
     &END AVERAGES
   &END MD
 &END MOTION
 &FORCE_EVAL
   METHOD  FIST
   &MM
     &FORCEFIELD
       &NONBONDED
         &LENNARD-JONES
           ATOMS Ar Ar
           EPSILON     1.1980000000000000E+02
           SIGMA     3.4049999999999998E+00
           RCUT     8.4000000000000004E+00
         &END LENNARD-JONES
       &END NONBONDED
       &CHARGE
         ATOM Ar
         CHARGE     0.0000000000000000E+00
       &END CHARGE
     &END FORCEFIELD
     &POISSON
       &EWALD
         EWALD_TYPE  NONE
       &END EWALD
     &END POISSON
   &END MM
   &SUBSYS
     &CELL
       A     1.7158000000000001E+01    0.0000000000000000E+00    0.0000000000000000E+00
       B     0.0000000000000000E+00    1.7158000000000001E+01    0.0000000000000000E+00
       C     0.0000000000000000E+00    0.0000000000000000E+00    1.7158000000000001E+01
       MULTIPLE_UNIT_CELL  1 1 1
     &END CELL
     &COORD
Ar   -8.3953397999602792E+00   -1.5666585766260065E+01    2.6402248098115799E+00
Ar    1.5276152519612374E+00    9.2672419892450115E+00    1.1152339904469171E+01
Ar    1.1764441160791195E+01   -7.5069892149130588E+00   -1.0310343876073301E+01
Ar   -1.2301895840765624E+01   -3.5073001695441404E+00    4.3281482252719270E+00
Ar   -1.3469388691596988E+00   -4.6651118167692796E-01    1.3311708504113557E+01
Ar    8.2573494331500896E+00   -2.7684305037330232E+00   -4.0245840076519102E+00
Ar    8.5891081086540488E+00    3.8392704149890040E+00    5.7839601750239602E+00
Ar   -4.1545125564153533E+00   -1.0119866323754819E+01   -6.9807723671148025E+00
Ar   -3.7047663039921188E+00   -1.5744706995525062E+01    1.5685024785258584E+01
Ar    9.7298225086465422E+00   -1.6337084395721188E+01   -5.6212471050455965E+00
Ar    4.3179855737516698E-01   -4.0434806247627977E+00    1.2571173136992289E+01
Ar    1.5560511672239514E+01   -8.0789167588003643E+00    2.4076963022502222E+00
Ar   -5.0524752263366599E+00   -2.5018356920744940E+00   -8.0628784511835783E-01
Ar   -2.0206819991356609E-01   -1.6720815029083613E+00   -7.0369422529703805E+00
Ar    7.6848155198487138E+00   -5.3407329927339697E+00   -1.2692362685168822E+01
Ar   -4.8841690299342240E+00    6.4889931942406531E-01    2.0403499478996894E+00
Ar   -1.1910136542867837E+01    3.1279228196231483E+00    3.9032171483555382E+00
Ar    1.6808325873271620E+01   -7.3297266631744780E+00   -1.0636399034927366E+00
Ar   -2.0191747361407291E+01   -5.7538361947087768E+00    4.7881048959703110E+00
Ar    1.4783683353382067E+01   -1.3286609662171234E+00   -1.6105053195550120E+01
Ar    8.3949817529259789E+00   -8.3254598759317044E+00   -4.3499485951516057E+00
Ar    1.1891056993709169E+01   -1.6908305567651316E+00    1.2834368059467746E+01
Ar   -7.7773771013152054E-02   -1.1276002299567910E+01    2.0248821244244571E+01
Ar    1.8606925178822842E+00    5.9265570414995103E+00   -1.1248859921413796E+01
Ar   -1.4197924270444727E+01    8.9280918872154515E+00    7.7793992671015140E+00
Ar   -9.9327882616515009E+00    6.6198931058731132E+00   -1.5101102606020360E+01
Ar   -2.8229828260122676E+00   -2.1741336536675501E+01    1.1095056482488559E+01
Ar   -1.7872758163445269E+01   -1.0906578677218596E+01   -4.8578900711417479E+00
Ar    4.9082911482611014E+00   -6.9228519290167903E+00   -6.2612820488084626E+00
Ar    3.1536679134877370E+00   -1.0289202702838898E+01    2.6222722332774926E+00
Ar   -1.6178826889727759E+01   -4.8579022804700900E+00    8.7829287668543934E+00
Ar   -6.0496259480557617E+00    4.5478017585300821E+00    2.8287403043767654E+00
Ar    6.6762579335335319E+00    2.7717046420314329E+01    1.5345419997108445E+01
Ar   -2.9877832464053076E+00    2.2952841346571319E+01   -1.7011119817599987E+01
Ar   -3.8480907399563753E+00    9.4804889292333900E+00    1.6213114919014075E+01
Ar   -7.8951097127698207E+00   -9.7200286212825162E+00   -2.9797099545882666E+01
Ar    2.1817775600632369E-01    1.4146182054947971E+01   -6.5533753683689933E-01
Ar   -5.7862508159833377E+00   -5.1384233510267974E+00   -2.0351557825993719E+01
Ar    2.3132394877580644E+01    6.6256853530445898E+00   -1.9744519242073981E+00
Ar    1.9597012188581260E+01   -1.0174993344972975E+01   -3.4992160588350902E+00
Ar   -6.6522977485268572E-02    6.7414749207529718E+00    8.6386418314490818E+00
Ar    5.5156661387343098E+00   -1.0907342641328216E-01    9.6147999720409905E-01
Ar   -3.5970578470121874E+00    3.6401156676539772E+00    2.5575696603093387E+01
Ar   -2.3355239083117049E-01    2.0308708440394579E+01   -2.6557678450524898E+00
Ar    2.4980724076443677E+00    3.9447720293543986E-01    9.9741993191957352E+00
Ar    3.4546328918847351E+00   -3.0413421761173831E+00   -6.7364033763434827E+00
Ar   -5.7415730855728473E+00   -6.8318535365437461E+00   -6.7814351070393935E+00
Ar   -2.3044743758267742E+01   -2.8133641758011617E+01    7.2595669309449713E+00
Ar    3.5948238522077522E+00    2.7510704577032143E+00   -9.0426119428390583E-01
Ar    1.5052063465972468E+01    2.7783653131327175E+00    1.9870531726368843E+00
Ar    1.9332918412048581E+01    1.6547029357585071E+01    1.3400428786205724E+01
Ar   -2.8310659108089286E+01    2.6080134075389418E+00   -8.8780992623681581E+00
Ar   -5.8400864307492037E+00   -1.5909060277828502E+01   -9.1188237322528334E+00
Ar    1.0075145594940599E+01    1.6504391212014717E+01    5.1575552745414033E+00
Ar   -7.5965113675834628E+00    6.3057110766823641E+00   -1.1662607463455092E+00
Ar   -1.2243453873440739E+01   -1.0616591330898222E+01   -6.3130634188982171E+00
Ar   -8.1127996181056687E+00    1.2800582793141063E+01   -9.1162422365319351E-01
Ar   -2.5058868564528531E+01    3.8157327107948031E+00   -7.7938141048659064E+00
Ar    2.6735927713798655E+00   -1.2906471584086564E+01   -7.6165919167789058E+00
Ar   -1.3650202293259596E+01    1.1923127252202532E+01   -3.3113667911598372E+00
Ar    1.3060367080829431E+01    5.3500294903861336E+00   -3.0475230207970236E+00
Ar   -1.3297413387791448E+01    1.5667551312641626E+01    7.1167436798097894E+00
Ar   -4.0131541550638952E+00   -1.9349635809031486E+01    2.1202363308283442E+01
Ar   -8.1856365295504023E+00    1.6482413634696876E+01   -1.7874113091160801E+01
Ar    4.4980743068717233E-01    9.7974538278545733E+00    2.2160526237962564E+01
Ar   -2.8435863634478689E+00   -8.1630770599448557E+00   -2.1185340555301352E+01
Ar   -6.4568111815111644E+00   -4.8178216265701908E+00    2.9098059919199080E+00
Ar   -3.8035864889591786E+00   -1.4857070087769310E+01   -4.9740498431620805E+00
Ar   -2.7913254115612418E+01    6.3655433053884181E-01   -3.0442656276911499E+00
Ar   -2.4263866004274934E+00    7.2063212659079294E+00    5.5012869080682476E+00
Ar   -8.6691861427640333E+00   -6.4077315883142525E+00   -8.7049165427205377E+00
Ar   -1.2047398342486455E+01   -2.5673466086841730E+00   -1.8699799222851556E+00
Ar    2.2796393402573983E+01    1.1739493411764409E+01    1.2324854359914179E+00
Ar    6.1828546531144362E+00   -3.3217245803473761E-01   -7.0956213108074335E+00
Ar    3.1963627133111596E+00   -8.1390364845505303E+00   -4.7176467420900203E-01
Ar    2.5987140988744756E-01    1.7403498805967669E+01   -1.7597821070586456E+01
Ar    2.1182057399153390E+01    1.0078020781773047E+01   -1.2595265370343993E+01
Ar    9.5777930310009685E-01    5.8457289116079600E+00    1.6757302439557478E+01
Ar   -7.0228485480068317E+00    5.9233629389491265E+00   -2.2645153180482165E+01
Ar   -1.0429616770069869E-01    1.7806355223902852E+01    7.5993812467033131E+00
Ar    1.5099619669080626E+01    9.9163209263402372E+00   -8.0530006972351984E+00
Ar   -6.9467613541343045E+00   -1.4879823586262241E+01    1.4646390461903119E+01
Ar   -2.2643599267525274E+00   -4.5972462147952937E+00   -2.3934874070039824E+00
Ar    4.9049788236701142E+00   -2.2308484731951957E+01    7.6167380492295429E+00
Ar   -9.4532047971012112E+00   -2.2542199065459805E+00    2.1732433398257349E+00
Ar    6.5528477407554568E+00    4.1514647679889549E-01    5.6347372557615092E+00
Ar    1.2083516265328646E+01    8.6006799730239827E+00    2.4115830979799013E+00
Ar   -1.4374697242346025E+01   -5.5194331445133105E-01   -1.3587475092649070E+01
Ar    1.4685034631503406E+01   -2.9472265766906722E+00    2.4159551617783873E+01
Ar   -3.4943432816019291E+00   -3.9399088938492788E-01   -7.2584870839464228E+00
Ar    7.5178449296184473E+00    3.2861049867673220E+00   -3.8249777756578962E-01
Ar   -1.0468972813466098E+00   -1.7120554424804503E+01   -1.3145477448675981E+01
Ar   -9.2911834132949611E+00   -1.0371855788444600E+01   -8.8812610720004077E+00
Ar   -6.4565982677006843E+00   -4.0645699580172439E+00   -1.0971915274782106E+01
Ar    6.6675582816782086E-01    1.3787903229913606E+01    5.4498116960056109E+00
Ar    8.9038670780569920E+00    9.8186095467568588E+00    1.0779195233430285E+00
Ar   -6.3624523636689370E+00   -2.0170301792516227E+01   -7.4763521668930926E+00
Ar   -2.8448582512318082E-01    1.9797630980654244E+01    1.0686367697313505E+01
Ar    7.4332555125329369E+00   -2.5471169408011769E+00    7.2470063765701784E+00
Ar    1.4032698572431649E+01    1.2195920059450202E+01    1.2570890501160110E+00
Ar   -4.2171702208193302E+00    1.9422511390509566E+01   -1.2061824762885482E+01
Ar    1.8359435584829704E+00   -5.7354768242153531E+00    1.8990536931479198E+00
Ar    1.8737897516965830E+01    2.7809652703270222E+00    2.1365251488373471E+00
Ar    5.8910531153136629E+00   -9.6371262827848891E+00    5.6367310978950425E+00
Ar    4.2907407741507173E+00    3.6562092699076003E+00   -4.4188298236665338E+00
Ar    2.5354980439595036E+00    2.4298074840570592E+00    6.2327228661378609E+00
Ar    2.4879329453285859E+01    3.9192241111102728E+00    1.3291616331360995E+01
Ar   -1.0376461303464279E+00    4.0612280374489309E+00    6.3195955765874814E+00
     &END COORD
     &VELOCITY
          -1.7149537933644540E-05    8.4828570979115492E-06   -7.5548484094699171E-05
          -5.4756656683471370E-05    1.7689123674798422E-05    1.4226542955623541E-06
          -5.1464196746239140E-05    3.3816507491517556E-05   -1.0424206167600971E-04
          -1.6120723608183184E-05    5.1115774210941539E-05    5.4111219027075337E-05
           3.9730624836169697E-05   -5.6656911009453551E-05    4.0090779456909943E-05
           6.2328201961923561E-05   -3.0502495633205217E-05   -2.6225886480192885E-05
           6.8525652454029127E-06   -4.0326457679893963E-05    3.4074154146303651E-05
           1.4670364049916459E-05    9.0073660690570046E-05    2.1705513747573613E-05
          -6.3061846721725894E-05    8.7017914798425986E-05   -1.1580712617865895E-04
          -2.5241052501064556E-05   -1.1904107924107682E-04    1.8349004559728273E-05
           2.3521989607703086E-05   -2.1070002907570245E-05    8.7754476490639521E-05
          -5.8774809792567756E-05   -3.9117787888994002E-05   -5.0993711059172932E-05
           1.3976973747901290E-04    4.5321176192252074E-05    1.6144342074790165E-05
          -3.7663309582345851E-05    3.9713324333002828E-05   -4.0627134630456769E-05
           1.0311144216059554E-04   -5.8998392320726490E-05    9.1922425454314742E-05
           4.9800268478605922E-05    3.1054200798677007E-05   -6.0098338817364833E-06
          -2.3628361350292904E-05   -2.1512796643274978E-05    1.3602968614744450E-06
           7.4791999462012768E-05    2.9744798078480477E-05   -2.2155134260264948E-05
           7.3043309433824550E-05   -8.8343992134253165E-06    4.8114876711535682E-06
           9.9703729420988892E-06   -3.1909175004414493E-05   -5.4186765685320336E-05
           9.9547676929403591E-05   -5.8655089442044910E-05    5.4637200712840945E-05
          -7.6913800991588825E-05    1.6157679623593030E-05   -2.3367116893112674E-05
           2.0449522246194915E-05   -7.2751158456183784E-05   -8.3059573881831723E-05
           4.0382010652183204E-05    3.2478367387888533E-05   -5.8669091855595657E-05
          -4.7605027115395191E-05    1.7149780907791181E-05   -7.8630142655027884E-05
           2.9144847407369987E-05    2.0550119430199784E-05   -1.9489111924266150E-05
          -8.5703407925040009E-05    1.8452713906989638E-05    8.6337649950052461E-05
          -6.4819749126659364E-05   -6.3532245197869442E-05   -2.8333134559187700E-05
          -2.1610928067069546E-05   -3.8063193053780723E-05   -9.0765906699270815E-05
          -5.0397897279899143E-05   -4.8630352583970091E-05   -1.1039220935340139E-04
          -1.8254308007990690E-05    4.4106455566734511E-05    3.1452398303603231E-05
          -5.9163727315361870E-05    6.1808122507233214E-05    5.5205553453247117E-05
          -1.8875910797649848E-06   -4.9792802032932588E-05    2.2486815536802049E-05
           6.2182881071290818E-05   -6.8317427967102000E-05   -2.0296094988023713E-05
           4.8045390859789597E-08    4.6139919625580326E-06   -3.4384556295644154E-05
           5.2119057660460303E-05   -5.7446325975582138E-06    3.6917184259637197E-05
          -9.7308837076970579E-06   -5.0304044493157088E-05   -6.7563721634541121E-05
          -1.4386526572078714E-04    4.4435927079269314E-05   -7.7294028284725279E-05
           3.7818234638886150E-05   -4.2453410663596236E-05    3.5825311794798672E-06
           3.3849351685367671E-05    1.8846569590205794E-05   -5.2637564719769148E-05
          -1.2767662147411757E-04    6.9370061112550968E-05    2.5186135462656303E-05
          -3.6411452861564215E-05   -3.9414773993174402E-05   -2.3545209696074526E-05
           6.6724874500695809E-05   -2.3786891905595799E-05   -1.0934227875211597E-05
          -8.3375566718160430E-06   -3.4605718081414255E-05   -4.9543832431221369E-05
          -5.9081001050977318E-05   -6.0610037609403274E-05   -1.1975076846792100E-06
           8.1867726866966228E-05   -2.9761459421544290E-05   -7.8282320194165812E-05
           1.5462829327138130E-04   -1.8670479300653373E-06    6.4092555296623320E-06
           4.9049594761876892E-05   -9.2484588069250730E-05    1.6355242133352578E-05
          -1.2583881265902392E-04    1.3309702317560054E-05   -3.8026825948571395E-06
           1.4892559403660986E-04    2.8527302151908081E-05   -3.7744270767593991E-06
           1.3934075376303740E-04   -1.2734627047924908E-05    3.7387854545881654E-05
           3.3133937158188654E-05   -4.3481002445715486E-06    1.1021558043774184E-04
          -5.6409291127627778E-05   -3.4548936128726154E-05   -2.2924890486376012E-05
           3.7423932746658470E-06    4.7034387661561974E-05    1.1624162046121861E-05
          -6.9180548761474262E-05   -3.2314258052708881E-07   -1.1555780472353909E-04
          -1.2514543082179161E-05    2.1243486091261687E-05    5.1470796740919490E-05
           1.2573671073354362E-04    3.5930362901654721E-05    7.2692910493990588E-05
           3.1445313926597189E-05    1.6539020576594884E-04   -1.2846817193419686E-05
          -1.0624733170122247E-04   -8.0965279859604842E-06    3.5978829324049003E-05
          -4.3669178624178367E-05   -3.0770476053733026E-05    9.6506900654815716E-05
          -2.2626157569272175E-05    1.1333297035800702E-04    1.0474030760764337E-04
          -2.6968550644571511E-05   -9.1821958611614486E-05    2.4961619020775574E-05
           3.7317321005270734E-05    2.7824222425905405E-05    7.1815265679971624E-05
           3.7663712103267346E-05    1.0824996173350911E-04    1.0278345116104236E-04
          -5.0665961868584548E-05    4.9315199292842623E-05    1.1286975137247019E-04
           3.8175342777876612E-05   -3.0571960293094747E-05   -6.6216191430380165E-05
           2.7122795010160069E-05   -9.4952786314286938E-05   -5.6990546504365587E-05
           3.7769173109546660E-05    1.3457967864823218E-05    1.5619698880501581E-04
          -4.8182238770209788E-05   -9.3992707577954972E-05   -4.6192015858533839E-06
           8.8481550990704379E-05    4.2760886886301463E-05   -1.4887983556361963E-04
          -6.3888402233845158E-05    6.9890572102196383E-05    5.6434899663041909E-05
          -1.1235913326228286E-05   -7.7048259650060104E-05    2.4354593001548169E-05
           3.3084287059704708E-06   -8.8966508847389668E-05    8.5019203325369894E-05
          -1.0322788852569552E-05    9.0482389914815434E-05   -1.9223422687236787E-05
          -6.0339173091234921E-05   -2.3258683943698842E-05   -5.0191619844189394E-06
           1.6928595980057532E-05    2.0772698073126157E-05   -5.9577896639635134E-05
           5.1296683308793188E-06    2.0839525942608141E-05    8.6065929818617253E-05
          -7.8849123352999463E-05   -1.7775796059260924E-06    3.7090630935351191E-05
           3.0293704393110476E-06   -6.3379453702965225E-06   -2.0669485355941532E-05
          -9.7110563440819714E-05    2.1830458099670813E-05    9.0636663830446224E-05
           2.5152239866982450E-05   -6.9061435172475076E-05    4.6254279836061510E-05
           1.2762835451068651E-05    2.5488426382492072E-05    6.2316406221840946E-05
          -5.2232175423546238E-05   -9.4682469927976346E-05    1.8488340411988193E-05
          -8.3104108048379538E-05    8.5136985602934356E-05    5.7479886354500006E-05
          -1.2302719089536354E-04    3.7156098344312214E-05   -5.4986225435978108E-06
          -3.3526653552834549E-05   -4.3235253870494012E-05   -1.6873430446556456E-06
           4.6542202209242924E-05    1.0454314728204956E-04    2.3757279959066529E-05
           3.2588544211321285E-05    1.0491175678482388E-06    2.6842722619859703E-05
           1.4669279137157715E-04   -3.1766635916695340E-06   -8.6118798354613515E-05
          -1.1003873477297227E-05    3.6467778986230896E-05    3.6532587400046120E-05
          -9.4008015857779335E-05   -1.0495856747236351E-05   -3.5871127112967832E-05
           3.4565719332344617E-05    1.6892890721069249E-05   -4.6076759564915844E-05
          -1.6027100778219663E-05    4.8307922201824199E-05   -6.4492375742285761E-05
           2.6860194888899544E-05   -8.1039443220562961E-05   -1.9175337834593747E-05
          -6.5213003288146462E-05    1.3591636295628784E-05    7.5450887045517610E-05
          -3.9132478993486695E-06   -7.7031111037246050E-05    9.7448001137336383E-06
           4.6616033194987133E-05    6.3463340741245100E-05   -2.0239538224855564E-05
           2.5364770047194110E-05    5.0310132075635210E-05   -8.5294464631199767E-05
           4.5448180619537016E-05    1.1457959392045829E-05    4.9973306548095568E-06
           5.5324296977575677E-05    5.4169949953857407E-05   -1.3934308666909551E-06
          -1.4094636811436113E-04   -9.6247000625234390E-05   -8.4808921192442970E-05
           6.9165761493942792E-05   -7.1389294245840953E-05   -9.1554565907264681E-06
           4.5489170040387991E-05   -4.9801503940362543E-05    4.2212059967693133E-05
          -1.6816487885327973E-04   -6.8077821798420091E-05    2.5579072488750520E-05
           1.0779124842238062E-04    2.9352473338999604E-05   -2.7951324888913265E-05
           5.3813504515094627E-05    3.9848012174727483E-05    1.9766786943194741E-05
           6.1470682061480042E-05    1.0945417821727041E-04   -5.1388506261821686E-05
          -1.0376692018004502E-04    7.3650950170498964E-05   -4.5149238535790462E-05
     &END VELOCITY
     &TOPOLOGY
       NUMBER_OF_ATOMS  108
       MULTIPLE_UNIT_CELL  1 1 1
     &END TOPOLOGY
   &END SUBSYS
 &END FORCE_EVAL
