 # Version information for this restart file 
 # current date 2023-01-25 03:28:53.105
 # current working dir /cygdrive/c/DATA/work/w23_CP2K/MD_LJ
 # Program compiled at                              Sun Aug 14 20:01:09 JST 2022
 # Program compiled on                                           DESKTOP-2FK7NUA
 # Program compiled for                             Cygwin-x86_64-gfortran-pexsi
 # Source code revision number                                       git:2caeb6f
 &GLOBAL
   PROJECT_NAME ar108
   RUN_TYPE  MD
 &END GLOBAL
 &MOTION
   &MD
     ENSEMBLE  NVE
     STEPS  100
     TIMESTEP     4.9999999999999991E+00
     STEP_START_VAL  60
     TIME_START_VAL     3.0000000000000017E+02
     ECONS_START_VAL    -1.6331454346504920E-01
     TEMPERATURE     8.5000000000000000E+01
     &AVERAGES  T
       &RESTART_AVERAGES
         ITIMES_START  1
         AVECPU     2.6047264282290903E-02
         AVEHUGONIOT     0.0000000000000000E+00
         AVETEMP_BARO     0.0000000000000000E+00
         AVEPOT    -2.0793685968890915E-01
         AVEKIN     4.4620308350236802E-02
         AVETEMP     8.7787926221911633E+01
         AVEKIN_QM     0.0000000000000000E+00
         AVETEMP_QM     0.0000000000000000E+00
         AVEVOL     3.4087613522108550E+04
         AVECELL_A     3.2423920988051862E+01
         AVECELL_B     3.2423920988051862E+01
         AVECELL_C     3.2423920988051862E+01
         AVEALPHA     9.0000000000000000E+01
         AVEBETA     9.0000000000000000E+01
         AVEGAMMA     9.0000000000000000E+01
         AVE_ECONS    -5.8413933881270750E-03
         AVE_PRESS     0.0000000000000000E+00
         AVE_PXX     0.0000000000000000E+00
       &END RESTART_AVERAGES
     &END AVERAGES
   &END MD
 &END MOTION
 &FORCE_EVAL
   METHOD  FIST
   &MM
     &FORCEFIELD
       &NONBONDED
         &LENNARD-JONES
           ATOMS Ar Ar
           EPSILON     1.1980000000000000E+02
           SIGMA     3.4049999999999998E+00
           RCUT     8.4000000000000004E+00
         &END LENNARD-JONES
       &END NONBONDED
       &CHARGE
         ATOM Ar
         CHARGE     0.0000000000000000E+00
       &END CHARGE
     &END FORCEFIELD
     &POISSON
       &EWALD
         EWALD_TYPE  NONE
       &END EWALD
     &END POISSON
   &END MM
   &SUBSYS
     &CELL
       A     1.7158000000000001E+01    0.0000000000000000E+00    0.0000000000000000E+00
       B     0.0000000000000000E+00    1.7158000000000001E+01    0.0000000000000000E+00
       C     0.0000000000000000E+00    0.0000000000000000E+00    1.7158000000000001E+01
       MULTIPLE_UNIT_CELL  1 1 1
     &END CELL
     &COORD
Ar   -8.4609453952318798E+00   -1.5631776189802666E+01    2.4727334477113057E+00
Ar    1.3481043997007773E+00    9.3338014218486034E+00    1.1139650919019736E+01
Ar    1.1653054918891865E+01   -7.4670407980797018E+00   -1.0540327793117589E+01
Ar   -1.2365366209648583E+01   -3.3791895805585326E+00    4.4095372621596187E+00
Ar   -1.3041976956889136E+00   -5.9449923037470087E-01    1.3413840384530735E+01
Ar    8.3794845942422711E+00   -2.8173036025498632E+00   -4.0996883923154952E+00
Ar    8.6042662450278975E+00    3.7433969211394387E+00    5.8244227668830630E+00
Ar   -4.0400332300853883E+00   -9.9570318423704709E+00   -6.9408745289256766E+00
Ar   -3.7500327000125755E+00   -1.5602732200578345E+01    1.5548945553565554E+01
Ar    9.6290931394658319E+00   -1.6572314947060629E+01   -5.6338754265476298E+00
Ar    4.8901143384411738E-01   -4.0886998825714205E+00    1.2751555602688045E+01
Ar    1.5490670838783617E+01   -8.1683020687132757E+00    2.2108235793690652E+00
Ar   -4.8077072977830957E+00   -2.4104101180658084E+00   -8.0731161133798179E-01
Ar   -3.2236814091578436E-01   -1.6981745456031705E+00   -7.0851327444333965E+00
Ar    7.8776558513832846E+00   -5.5292801878639963E+00   -1.2460053909477510E+01
Ar   -4.8885548227384605E+00    7.2771299935658973E-01    1.9639931649124140E+00
Ar   -1.1962623793180608E+01    3.1317395322715735E+00    3.8536848644217230E+00
Ar    1.6996122593739099E+01   -7.2758703773680100E+00   -1.1153667084852956E+00
Ar   -2.0035194176533892E+01   -5.7768182992555044E+00    4.8019429270695744E+00
Ar    1.4893516407598398E+01   -1.4118018930647964E+00   -1.6206448296607952E+01
Ar    8.6086145063940815E+00   -8.4343167960382459E+00   -4.2467532990803294E+00
Ar    1.1789902195555953E+01   -1.6575274966836331E+00    1.2836449759396553E+01
Ar   -1.4413092448536549E-01   -1.1456977768695893E+01    2.0061240228553473E+01
Ar    2.0246072334709782E+00    6.0283428058736854E+00   -1.1356431748535011E+01
Ar   -1.4315065761694694E+01    8.9477334262392834E+00    7.6678398928576970E+00
Ar   -9.9488528741796038E+00    6.6138931688923845E+00   -1.5224301046182822E+01
Ar   -3.0248281738766924E+00   -2.1633025822786845E+01    1.1293403717547672E+01
Ar   -1.8024082533634662E+01   -1.1084858808068935E+01   -4.9350191700663482E+00
Ar    4.9020214219148670E+00   -6.9836743695436674E+00   -6.4542780530122936E+00
Ar    3.1411196673227839E+00   -1.0370393408443322E+01    2.3713275208106230E+00
Ar   -1.6248113872110107E+01   -4.8206216686021373E+00    8.8332311150029117E+00
Ar   -6.1769882049809564E+00    4.6892591477139698E+00    2.9320890202575223E+00
Ar    6.6275919152059553E+00    2.7572993350436025E+01    1.5347817489730231E+01
Ar   -2.8214266768261904E+00    2.2845315411014656E+01   -1.6959491155891492E+01
Ar   -3.9303985807939328E+00    9.4733136501440338E+00    1.6234354349227310E+01
Ar   -7.7256057634013731E+00   -9.6827969650632149E+00   -2.9644767185267302E+01
Ar    2.7850575952083567E-01    1.3923528340769513E+01   -8.0248348758525556E-01
Ar   -6.0309108154168500E+00   -5.1085907425442594E+00   -2.0618556552324204E+01
Ar    2.3176365619455588E+01    6.5453980104063687E+00   -1.9659741173946985E+00
Ar    1.9705395314004182E+01   -1.0159121228147848E+01   -3.5806291724107124E+00
Ar   -3.5779352714423923E-01    6.8844098926990256E+00    8.7137887745032838E+00
Ar    5.3339439730979770E+00   -6.7463884452883718E-02    8.5002346385340544E-01
Ar   -3.4700254432284283E+00    3.6151585685770669E+00    2.5694833541698348E+01
Ar   -2.6241191840402167E-01    2.0238851760173429E+01   -2.7780054735282338E+00
Ar    2.4783740279757462E+00    3.5523432720366482E-01    9.9683468427523323E+00
Ar    3.6644437952450750E+00   -3.1069710065729721E+00   -6.8215056094549364E+00
Ar   -5.4222429205066760E+00   -6.8184195644450512E+00   -6.7367619520519924E+00
Ar   -2.2930060505363166E+01   -2.8354561579259489E+01    7.2519897280235881E+00
Ar    3.3300271500140624E+00    2.7775498761746586E+00   -9.3134870492234922E-01
Ar    1.5370672356986081E+01    2.8521683479764692E+00    1.9576274104378626E+00
Ar    1.9664307681609774E+01    1.6509353169105900E+01    1.3506870332067223E+01
Ar   -2.8282073935794081E+01    2.7128779399529197E+00   -8.6682797203242128E+00
Ar   -6.0796965318241742E+00   -1.6042960197295361E+01   -9.1659581580537726E+00
Ar    1.0072191817681167E+01    1.6594366930055642E+01    5.1716327400962934E+00
Ar   -7.7092690286109180E+00    6.3100084420819798E+00   -1.4170600367017212E+00
Ar   -1.2217888597135200E+01   -1.0512250224027788E+01   -6.2245950741515825E+00
Ar   -7.9052348388973988E+00    1.2931293092254466E+01   -6.3317423659990058E-01
Ar   -2.5018496785369216E+01    3.9819425049948367E+00   -7.9030205371586222E+00
Ar    2.4623226669437703E+00   -1.2909452181617356E+01   -7.5929083737716914E+00
Ar   -1.3759136200909984E+01    1.1773351477851552E+01   -3.1133512848027256E+00
Ar    1.2970582046743994E+01    5.5996833230340535E+00   -2.9135021360371960E+00
Ar   -1.3398410363147153E+01    1.5508642132216011E+01    7.1821688207232377E+00
Ar   -3.9706365330461764E+00   -1.9299643672540103E+01    2.1303489148411575E+01
Ar   -8.0996367592804024E+00    1.6732107337463816E+01   -1.7670207339586586E+01
Ar    3.5724265403067473E-01    9.9073531136191129E+00    2.2458023949280388E+01
Ar   -2.7380117885099859E+00   -8.1928520257083512E+00   -2.1429823008853855E+01
Ar   -6.3352818574623528E+00   -5.0051451338345680E+00    2.6878737367638177E+00
Ar   -3.7282000735524048E+00   -1.4797703731674391E+01   -4.7181546107163799E+00
Ar   -2.8016753987512779E+01    4.5071208310278010E-01   -3.0666091293248416E+00
Ar   -2.2888321453229254E+00    7.3491027897314716E+00    5.2145083700995132E+00
Ar   -8.8314905232999870E+00   -6.2491748888445198E+00   -8.5994313319609859E+00
Ar   -1.2030138492711879E+01   -2.7023157525091808E+00   -1.7714587507899495E+00
Ar    2.2788132443004102E+01    1.1565548913717693E+01    1.4611644384060480E+00
Ar    6.1749420801312578E+00   -2.2828716991062978E-01   -7.0757834853294614E+00
Ar    3.1159283155795610E+00   -8.1992399286683995E+00   -4.9971996649506728E-01
Ar    3.5255224913423039E-01    1.7593109641342064E+01   -1.7726191605043496E+01
Ar    2.1168930756675671E+01    1.0217071673225638E+01   -1.2496130315081643E+01
Ar    7.8981496135427287E-01    5.8411101377604417E+00    1.6810679677246696E+01
Ar   -6.9371914371322614E+00    6.0275313212894250E+00   -2.2544702003015953E+01
Ar   -3.7682318191192904E-01    1.7884675682429982E+01    7.6889141707689541E+00
Ar    1.5172814614382272E+01    9.7665469615159779E+00   -7.9946273328382755E+00
Ar   -6.8718752936340097E+00   -1.4833910415113690E+01    1.4816517617767714E+01
Ar   -2.4573136202614108E+00   -4.7997498318192626E+00   -2.3775267117619507E+00
Ar    4.7317693464232953E+00   -2.2139875380357083E+01    7.7296976174747059E+00
Ar   -9.6096517268447261E+00   -2.2999505232353155E+00    2.2607539173418281E+00
Ar    6.4867532636701180E+00    3.1178445081974482E-01    5.5891634115368927E+00
Ar    1.2137535295155082E+01    8.8127426316435855E+00    2.4914283725238162E+00
Ar   -1.4314499950825947E+01   -5.2983776613579481E-01   -1.3522142896748100E+01
Ar    1.4947361563569210E+01   -2.9359501931818066E+00    2.4137827033035144E+01
Ar   -3.4948591918032674E+00   -3.3973387523706183E-01   -7.1774722304182959E+00
Ar    7.2736925655778517E+00    3.2584157661229831E+00   -4.2213172990252973E-01
Ar   -9.3987052153052941E-01   -1.7087337025363773E+01   -1.3193549105275586E+01
Ar   -9.3120416367568346E+00   -1.0213418278011853E+01   -8.9623806260343954E+00
Ar   -6.3770249376751256E+00   -4.2048263091874141E+00   -1.0937404445918078E+01
Ar    6.3767962681898560E-01    1.3813582593283607E+01    5.5390106444048417E+00
Ar    8.8807598021211049E+00    9.6219263154270820E+00    1.0949070999562440E+00
Ar   -6.2741721808151167E+00   -2.0039800434909967E+01   -7.5350851703174939E+00
Ar   -3.1629965099722435E-01    1.9894666179451487E+01    1.0546086949528545E+01
Ar    7.5621858160239919E+00   -2.5684375697247090E+00    7.2817843803100395E+00
Ar    1.4167133343481199E+01    1.2320819416915379E+01    1.2552252062355613E+00
Ar   -4.4860698096665299E+00    1.9246623906776687E+01   -1.2207282855866776E+01
Ar    1.9552557147696139E+00   -5.8661409212465214E+00    1.8886481151701591E+00
Ar    1.8860253787114324E+01    2.6640053643223851E+00    2.2556003070013131E+00
Ar    5.5137317102373808E+00   -9.8745613519447950E+00    5.6547685271511234E+00
Ar    4.4570295662057093E+00    3.6583145317691428E+00   -4.4525107637515848E+00
Ar    2.6668295489400604E+00    2.4835209001636080E+00    6.2766115174660859E+00
Ar    2.4952183710042558E+01    4.1902137093426157E+00    1.3119928437638949E+01
Ar   -1.1656976227935019E+00    4.1598650289938925E+00    6.1290186729445155E+00
     &END COORD
     &VELOCITY
          -4.1166688187670430E-05    2.3349511836068943E-05   -6.9252463385576377E-05
          -1.0356185917034055E-04    4.1826976943249750E-05   -1.1313044302964050E-05
          -4.7871051634656115E-05   -1.1619622992264491E-05   -9.9287617872034203E-05
          -2.5679985761261453E-05    4.9958960258973864E-05    1.6279389062650858E-05
           4.7521403361985348E-06   -6.1178090391427473E-05    5.1420574255014470E-05
           4.2864781250496230E-05   -1.4985246096004289E-05   -3.8087315415424590E-05
           5.0420911679029340E-06   -4.8195725174740802E-05   -1.4391696478749275E-06
           7.7236803100663585E-05    3.5504410317798799E-05    6.8576862213324599E-06
           4.0010097476711569E-05    2.8003242007831624E-05    3.3703410554829343E-05
          -7.1790937419508421E-05   -8.2362238011727266E-05   -2.7281810954302759E-05
           1.8056342653500085E-05   -1.4783873578650863E-05    6.8303735527799772E-05
           1.5219035790015589E-05   -3.5519220789123546E-05   -1.2396982626947288E-04
           5.8953672725551666E-05    3.1719310160565714E-05   -3.4798556879955650E-05
          -6.2447009046752639E-05   -6.7004841224848296E-05    4.6575698183454248E-06
           6.3956665430697939E-05   -1.0519210315103317E-04    1.1274388291544461E-04
          -3.9515279877775243E-05    2.8229968199700755E-05   -8.3404962047112374E-05
          -2.0261209280003268E-05    2.2839857360734202E-05   -4.6311693404274785E-05
           8.2608267206768314E-05    2.1909595950337994E-05   -2.7643313521166239E-05
           6.6590476924801976E-05   -1.0582298139470088E-05    5.4027057633569513E-06
           1.0753692902557212E-04   -2.0631029358408994E-05   -1.9175789045584681E-05
           8.8281479604214488E-05   -2.7900449245839734E-05    4.5422637808477833E-05
          -4.8123722893531370E-06    9.6279772764336683E-06    3.1561818427234090E-05
          -6.6574292061046005E-05   -8.0825169094298052E-05   -6.7341249293336562E-05
           8.9152512884980542E-05    5.3803357275381602E-05   -4.0667465796952200E-05
          -5.8983944572966340E-05    2.5183086724946281E-06   -1.0919630450320304E-05
          -3.2702800758357605E-05   -2.4603667635500102E-05   -7.4993647265151502E-05
          -8.6270083960926101E-05    7.7690759434023137E-05    8.6809084310244511E-05
          -6.6277893877290616E-05   -9.8887521688111090E-05   -3.7906282864480373E-05
           1.0301366417319062E-05   -1.5068990176287843E-05   -8.1049082202973069E-05
           3.4207884083592907E-05   -2.8518449003842923E-05   -1.1352615645598242E-04
          -4.1698295505210037E-05   -9.4561842794720214E-06    1.6927213100243959E-05
          -5.5955836617584220E-05    6.5060234248525407E-05    3.7847939573376681E-05
          -3.3593726398243282E-05   -7.0475226653197125E-05   -9.7407237634591567E-06
           8.5420200150770664E-05   -2.7554555508320737E-05    6.4580224560250273E-05
          -6.3176018088620153E-05   -1.5592923742150093E-05    3.3284875909437058E-05
           7.9576963364721910E-05    3.5847751707625370E-05    8.6064122703454895E-05
           5.9912708055027653E-05   -1.2675601199539183E-04   -6.5068759367175851E-05
          -8.5246964851943570E-05   -1.4601644117905841E-05   -1.5328053938518400E-04
          -6.5524969989102071E-06   -2.7896664683459570E-05    4.6367803049175391E-06
           5.4537128629368221E-05   -4.7190700618256801E-06   -2.1016027105503877E-05
          -1.2270312841072500E-04    4.1259081682554749E-05    2.8301908602736078E-05
          -1.1777894117079147E-04    6.7279384844206352E-05   -7.2691360766229579E-05
           4.0298064393120643E-05   -1.7559608156009092E-05    1.1433946880106607E-04
          -1.8357732058450894E-05   -2.4315981051847527E-05   -6.4200566406526501E-05
           3.2268645918485666E-05    1.9887040134529697E-05   -3.7128373178387646E-06
           1.0030302396856988E-04   -2.5306782656122303E-05    1.6778180072217782E-05
           1.1942155696915312E-04    1.7177003069659264E-05    2.3874222005491029E-05
           5.9686369503665970E-05   -9.7224126222339265E-05   -2.3120638626247129E-05
          -1.1422026588412154E-04    1.2148757284013854E-05   -2.4201204871182730E-05
           1.2622298570196243E-04    2.2229530527882483E-05   -2.4035712994566212E-05
           1.5668750489689315E-04   -2.0624671061923939E-05    5.6982970563661088E-05
          -7.0811212998625024E-06    1.0293083199180587E-04    7.1628264908407777E-05
          -1.4006191107457383E-04   -7.0422807308015046E-05   -7.0954361370275489E-06
          -1.0903672602239962E-05    2.7830887688707574E-05   -8.0846519006613391E-06
          -2.7554636955858755E-05    3.0184717904596529E-06   -1.0977995125535088E-04
           3.3327079586372169E-05    6.3511734652908124E-05    2.3896609602960196E-05
           6.3075683815531558E-05    7.2117986034677764E-05    1.6661917315867673E-04
           1.0169504389710026E-05   -4.4878073975258729E-06   -6.4900421537682465E-05
          -6.4922887667997537E-05    2.0000854195167766E-05   -1.3860551441693115E-05
          -5.0527313498111666E-05   -1.0738316736849760E-04    8.5108060031489178E-05
          -5.9566725225861188E-05    1.1421413990988461E-04    1.6621288833732131E-05
          -6.5714845432804698E-05   -3.9485350706583978E-05    3.2897852055410386E-05
           1.5962845190607777E-06    2.0399700463678989E-05    1.6319678013983035E-05
           3.9609236278116084E-05    1.0888442280797483E-04    8.4388837744325630E-05
          -3.8108617107994325E-05    5.0634816417453509E-05    1.4406246311830386E-04
           5.4643281773368945E-05    1.3964080718840285E-05   -1.2571499461693072E-04
           7.6034322156914532E-05   -6.8612439531814956E-05   -1.2466792714381411E-04
           3.2856335921932623E-05    4.9535423562784204E-05    3.8772376305965833E-05
          -4.3364801480899789E-05   -7.1392844935642676E-05   -1.5946492852222209E-05
           3.3097390175898418E-05    8.5074878487474218E-05   -1.0576335503977893E-04
          -7.7278165502488682E-05    7.3730513813302873E-05    4.3689291992501970E-05
           2.7194187499732152E-05   -5.0241855964363932E-05    6.4452525977147252E-05
          -5.6539068407521987E-06   -7.2629681493453966E-05    1.1677274881547290E-04
           2.8107382193177211E-06   -4.5492694879052984E-06    3.9601093565634125E-05
          -4.5383362947645167E-06   -3.4915071298584638E-05   -2.3082943284769105E-05
           6.2171028710511234E-05    1.1658290714002671E-04   -5.1382790821527401E-05
          -1.0461581020055883E-05    1.0066030850250341E-04    5.5237999986478910E-06
          -6.8269995660987732E-05   -2.3237461849591235E-06   -5.9430341761667723E-06
           9.0897925941462482E-05    8.6401082508110738E-05    8.5536356605264512E-05
          -1.4358088794822038E-04    5.3569674736838899E-05   -1.6375902840686870E-05
           3.7422791391990448E-05   -3.5275454486104143E-05    1.2051630001134599E-05
           1.7658068912837435E-05    3.2814672401816343E-05    7.2372248991434503E-05
          -1.1487460616370430E-04   -8.5692827192766533E-05   -3.4274490383190449E-06
          -6.8416404955119517E-05    5.5591884634257548E-05    3.2602045359957642E-05
          -2.8463553349132603E-05   -6.5426985587568325E-05    7.5719547644340424E-05
          -3.1254125775470242E-05   -4.5201067854159747E-05   -3.4704368506189219E-05
          -5.6372724316712201E-06    8.5236968533217394E-05    5.1866071734830411E-05
           2.1145308264445242E-05    2.0536433805001891E-05    3.3282256771093663E-05
           6.1272517779375791E-05    1.7683114150409885E-05    7.9556617122615009E-05
           1.3021014700282183E-06    2.2472974769558390E-05    3.5477270179469935E-05
          -1.2630969961260381E-04   -1.3569239668600080E-05   -9.1092126294389858E-06
           6.0910572875673614E-05    1.0866818279598618E-05    8.7487155355864440E-07
          -2.8677128076875244E-06    9.7676464578589498E-05   -1.5290173647205997E-05
           4.6345770764629358E-05   -3.3653232185202682E-05    3.5870039593415576E-05
           7.0168621352536476E-05    5.9461834939914733E-06   -1.0849010253741089E-05
          -1.6520568475624834E-05   -9.6756267060533837E-05    1.6000450904110403E-06
           3.2965763222713389E-05    5.4829001234089890E-05   -3.4481939196394393E-05
          -6.8571971663377706E-05    3.1447706568987088E-05   -3.2602346472922452E-05
           6.8965200557469450E-05   -2.9654116191464139E-05    2.7210918178101972E-05
           6.8371083445929650E-05    4.9969290098468477E-05    2.0342482197933159E-06
          -1.0023748966685792E-04   -5.4564906282829119E-05   -2.7209049567179374E-05
           3.5445762378197868E-05   -4.6128833265315427E-05    1.9147176473715220E-06
           7.0963159929921497E-05   -5.6080776719671543E-05    6.7751351626811282E-05
          -1.7108743740645456E-04   -1.4671786338562321E-04   -1.0477272445316695E-05
           3.8483428132720957E-05   -2.9291491582316904E-05   -4.3827275178662642E-06
           5.7147517353328072E-05    5.7850055057423190E-06    2.5077266821932178E-05
           1.5474740291581540E-05    1.1335902528004654E-04   -8.7290250954697994E-05
          -1.1602042938347957E-05    1.9249811132079572E-05   -1.2607226716934112E-04
     &END VELOCITY
     &TOPOLOGY
       NUMBER_OF_ATOMS  108
       MULTIPLE_UNIT_CELL  1 1 1
     &END TOPOLOGY
   &END SUBSYS
 &END FORCE_EVAL
