 # Version information for this restart file 
 # current date 2023-01-25 03:28:53.618
 # current working dir /cygdrive/c/DATA/work/w23_CP2K/MD_LJ
 # Program compiled at                              Sun Aug 14 20:01:09 JST 2022
 # Program compiled on                                           DESKTOP-2FK7NUA
 # Program compiled for                             Cygwin-x86_64-gfortran-pexsi
 # Source code revision number                                       git:2caeb6f
 &GLOBAL
   PROJECT_NAME ar108
   RUN_TYPE  MD
 &END GLOBAL
 &MOTION
   &MD
     ENSEMBLE  NVE
     STEPS  100
     TIMESTEP     4.9999999999999991E+00
     STEP_START_VAL  80
     TIME_START_VAL     4.0000000000000028E+02
     ECONS_START_VAL    -1.6331454346504920E-01
     TEMPERATURE     8.5000000000000000E+01
     &AVERAGES  T
       &RESTART_AVERAGES
         ITIMES_START  1
         AVECPU     2.5929354083996270E-02
         AVEHUGONIOT     0.0000000000000000E+00
         AVETEMP_BARO     0.0000000000000000E+00
         AVEPOT    -2.0852844678730448E-01
         AVEKIN     4.5211664761104123E-02
         AVETEMP     8.8951386423947653E+01
         AVEKIN_QM     0.0000000000000000E+00
         AVETEMP_QM     0.0000000000000000E+00
         AVEVOL     3.4087613522108550E+04
         AVECELL_A     3.2423920988051862E+01
         AVECELL_B     3.2423920988051862E+01
         AVECELL_C     3.2423920988051862E+01
         AVEALPHA     9.0000000000000000E+01
         AVEBETA     9.0000000000000000E+01
         AVEGAMMA     9.0000000000000000E+01
         AVE_ECONS    -6.5232132774584919E-03
         AVE_PRESS     0.0000000000000000E+00
         AVE_PXX     0.0000000000000000E+00
       &END RESTART_AVERAGES
     &END AVERAGES
   &END MD
 &END MOTION
 &FORCE_EVAL
   METHOD  FIST
   &MM
     &FORCEFIELD
       &NONBONDED
         &LENNARD-JONES
           ATOMS Ar Ar
           EPSILON     1.1980000000000000E+02
           SIGMA     3.4049999999999998E+00
           RCUT     8.4000000000000004E+00
         &END LENNARD-JONES
       &END NONBONDED
       &CHARGE
         ATOM Ar
         CHARGE     0.0000000000000000E+00
       &END CHARGE
     &END FORCEFIELD
     &POISSON
       &EWALD
         EWALD_TYPE  NONE
       &END EWALD
     &END POISSON
   &END MM
   &SUBSYS
     &CELL
       A     1.7158000000000001E+01    0.0000000000000000E+00    0.0000000000000000E+00
       B     0.0000000000000000E+00    1.7158000000000001E+01    0.0000000000000000E+00
       C     0.0000000000000000E+00    0.0000000000000000E+00    1.7158000000000001E+01
       MULTIPLE_UNIT_CELL  1 1 1
     &END CELL
     &COORD
Ar   -8.5749972936648646E+00   -1.5547937600254839E+01    2.3885988196506269E+00
Ar    1.1049229878333500E+00    9.4346255583601195E+00    1.1123455595480461E+01
Ar    1.1586122828762299E+01   -7.5677501435926988E+00   -1.0716151880764594E+01
Ar   -1.2388505057477447E+01   -3.3136907476805928E+00    4.4063744231915551E+00
Ar   -1.3145426844682477E+00   -7.3430736975726441E-01    1.3531861842365187E+01
Ar    8.4173900826810488E+00   -2.8286687876104035E+00   -4.1825569736026820E+00
Ar    8.6035411402648165E+00    3.6265948530929100E+00    5.7620271564247245E+00
Ar   -3.8687508405268161E+00   -1.0032697122516073E+01   -6.9945114168382920E+00
Ar   -3.5354244932491405E+00   -1.5619354248381180E+01    1.5817626890420929E+01
Ar    9.4280278464160503E+00   -1.6686277630528849E+01   -5.7206726043826288E+00
Ar    4.8756426724719965E-01   -4.1074857973329646E+00    1.2841734536419395E+01
Ar    1.5624171155857596E+01   -8.2199293298058933E+00    1.8823048055902853E+00
Ar   -4.7776832241099196E+00   -2.3511839653457307E+00   -9.3134859540684856E-01
Ar   -4.2114395484486261E-01   -1.8908414301941783E+00   -7.0319890876215547E+00
Ar    7.9693749396124360E+00   -5.7835861650773639E+00   -1.2228294758617210E+01
Ar   -5.0080809618892621E+00    7.5166820971644088E-01    1.6823580773692950E+00
Ar   -1.1983632292074129E+01    3.2168377038597922E+00    3.7114529855715750E+00
Ar    1.7125088974532851E+01   -7.2184534680036228E+00   -1.2021579503722388E+00
Ar   -1.9925135558491547E+01   -5.7847688941364561E+00    4.8057160444030611E+00
Ar    1.5226606703014467E+01   -1.3825912545601942E+00   -1.6191485406274612E+01
Ar    8.7413097750808841E+00   -8.3820560091003191E+00   -4.1339180038546424E+00
Ar    1.1871059810204516E+01   -1.6382470034254106E+00    1.2950614672840993E+01
Ar   -2.5464863754787181E-01   -1.1534464943205055E+01    2.0023116439742751E+01
Ar    2.1426842437940996E+00    6.1109562891164497E+00   -1.1446343152164562E+01
Ar   -1.4429071246186471E+01    8.9512088484080294E+00    7.7505500625519330E+00
Ar   -1.0054299646877586E+01    6.5054163869111914E+00   -1.5383210746960790E+01
Ar   -3.1594372459775459E+00   -2.1389743397175323E+01    1.1444275277563701E+01
Ar   -1.8154918155428231E+01   -1.1315481264732448E+01   -5.0058372766915342E+00
Ar    4.9336374122687916E+00   -6.9763770606498809E+00   -6.6007165810448258E+00
Ar    3.2614774415773939E+00   -1.0442057338320700E+01    2.1530068755085026E+00
Ar   -1.6333962743018848E+01   -4.8881085265041255E+00    8.8565438155390215E+00
Ar   -6.2878721497152963E+00    4.8201003779958080E+00    2.9896236777101368E+00
Ar    6.5443346028037830E+00    2.7431148821494798E+01    1.5336039863937486E+01
Ar   -2.6832860275592427E+00    2.2844526850237688E+01   -1.6802647987547619E+01
Ar   -4.0983472261272320E+00    9.3968806972647982E+00    1.6312012169937709E+01
Ar   -7.6242011028782581E+00   -9.5900749002130361E+00   -2.9480222441960127E+01
Ar    4.4905395857188923E-01    1.3644757743913981E+01   -9.2130717084288660E-01
Ar   -6.1933584290154986E+00   -5.1882445753305717E+00   -2.0939055607822819E+01
Ar    2.3086062086532564E+01    6.5086708488560037E+00   -1.9512123253198159E+00
Ar    1.9800536754384442E+01   -1.0188493814238825E+01   -3.6012504797368101E+00
Ar   -5.4423039508556925E-01    6.8296154331467660E+00    8.7195949410012261E+00
Ar    5.0682360095293566E+00    1.1953242236618450E-01    6.8470127026966066E-01
Ar   -3.3998321490741485E+00    3.5457215520893337E+00    2.6001011965159083E+01
Ar   -3.1582134039903859E-01    2.0220093373901520E+01   -2.9456041261528689E+00
Ar    2.5688002225750131E+00    4.5013281323037613E-01    9.9634174955826111E+00
Ar    3.8543405137725850E+00   -3.1302421050666820E+00   -6.6206763786011598E+00
Ar   -5.2653491041900171E+00   -6.7747678946729399E+00   -6.7195153625482789E+00
Ar   -2.2771458773876326E+01   -2.8536910201567824E+01    7.1624352850649062E+00
Ar    3.1110137997102814E+00    2.8224682998845316E+00   -1.0153259069782745E+00
Ar    1.5542437200045347E+01    2.7597598280624185E+00    1.8650795798384991E+00
Ar    1.9992326001526969E+01    1.6461207558509432E+01    1.3635148086280644E+01
Ar   -2.8347385079573453E+01    3.0011846178218455E+00   -8.5528189882196504E+00
Ar   -6.3844859914126273E+00   -1.6187357383304708E+01   -9.1107254582471384E+00
Ar    1.0006492707783826E+01    1.6596806504241588E+01    5.0815348485007883E+00
Ar   -7.7054114935485467E+00    6.3127715213997071E+00   -1.6203231519358996E+00
Ar   -1.2102397205585087E+01   -1.0396946611941168E+01   -6.2097864379069172E+00
Ar   -7.8242227250745264E+00    1.3084682840103616E+01   -2.8242062502320381E-01
Ar   -2.4991326436941296E+01    3.9123516291085285E+00   -7.9586057974048119E+00
Ar    2.4095661091889444E+00   -1.2801810104428583E+01   -7.6611038908803124E+00
Ar   -1.3854455758343745E+01    1.1481313842405452E+01   -2.9329774013348646E+00
Ar    1.2846867212374509E+01    5.8463708313068459E+00   -2.9103413914502019E+00
Ar   -1.3580933419876347E+01    1.5528769489974115E+01    7.2533043081915674E+00
Ar   -3.9816788447325520E+00   -1.9259980429961612E+01    2.1292278015914729E+01
Ar   -8.0232266580402349E+00    1.6902104889025086E+01   -1.7520074847390582E+01
Ar    2.8785657349901977E-01    1.0021876789858325E+01    2.2757024205585150E+01
Ar   -2.5937086001760923E+00   -8.0749293366598511E+00   -2.1633170520431353E+01
Ar   -6.1671559906702544E+00   -5.0785617603366306E+00    2.4530257190588056E+00
Ar   -3.6635713491568453E+00   -1.4637566697796705E+01   -4.7981420468792475E+00
Ar   -2.8089435583566303E+01    3.3162109219574709E-01   -3.1109891370663596E+00
Ar   -2.2870416130902624E+00    7.5535233805345028E+00    5.0597148039664619E+00
Ar   -8.9907261281185509E+00   -6.0906076912505167E+00   -8.5042320058607537E+00
Ar   -1.1939955901037061E+01   -2.8210801638190466E+00   -1.6006904586322066E+00
Ar    2.2795410967397494E+01    1.1414375878530667E+01    1.7068530916346012E+00
Ar    6.1890337152475814E+00   -3.1109348224400429E-01   -6.9568722022596550E+00
Ar    3.2003804488683101E+00   -8.2958832379154028E+00   -5.7123290377364011E-01
Ar    5.0719517039792017E-01    1.7813434084461928E+01   -1.7794167011556127E+01
Ar    2.1159160051806918E+01    1.0439886465068664E+01   -1.2511691505800083E+01
Ar    6.9391275752198744E-01    5.8396975332380761E+00    1.6688754045681478E+01
Ar   -6.6222421171386685E+00    6.1790227991888234E+00   -2.2417753174771256E+01
Ar   -7.0344353952475347E-01    1.8006108008777662E+01    7.5719318145213093E+00
Ar    1.5235659952402598E+01    9.8886254725201468E+00   -7.9993180022397450E+00
Ar   -6.8992259433072798E+00   -1.4702824684538111E+01    1.4924681951822038E+01
Ar   -2.7118086644804036E+00   -4.9563363745539242E+00   -2.3889877688215218E+00
Ar    4.6275290326543477E+00   -2.2112176231108794E+01    7.7055353795812378E+00
Ar   -9.6269415294304359E+00   -2.4561153089127927E+00    2.4471686345844401E+00
Ar    6.4056653381909960E+00    2.2506913293750275E-01    5.4989995725945944E+00
Ar    1.2097112784666269E+01    8.9339685239332081E+00    2.6447947816249475E+00
Ar   -1.4281081437036367E+01   -4.6636450447283384E-01   -1.3438522377536119E+01
Ar    1.4963754720179306E+01   -2.8801742933907897E+00    2.4435245763575494E+01
Ar   -3.5151518549475469E+00   -2.7104487842205793E-01   -7.1120097770568487E+00
Ar    6.9771081241135899E+00    3.2320105432120463E+00   -4.4948634694187095E-01
Ar   -7.9094455371604766E-01   -1.7076739252164412E+01   -1.3146849850864667E+01
Ar   -9.3056155718764195E+00   -9.9666399589511272E+00   -8.9696224563127185E+00
Ar   -6.2533762028639668E+00   -4.1827009364934638E+00   -1.0862678280123777E+01
Ar    9.2865573446949901E-01    1.3814006929692338E+01    5.4215325038289270E+00
Ar    8.8417018182090974E+00    9.4267158951428662E+00    1.0745969430377040E+00
Ar   -6.2187998652494949E+00   -1.9926589100646357E+01   -7.6117989242664690E+00
Ar   -5.5899672872977413E-01    1.9915865707291228E+01    1.0549166512173214E+01
Ar    7.7149279672878199E+00   -2.6561440316253395E+00    7.3590573085891844E+00
Ar    1.4335593013359965E+01    1.2386752096099150E+01    1.2668900261378064E+00
Ar   -4.6515930366004810E+00    1.9191271358508043E+01   -1.2173583178364092E+01
Ar    1.9733635537732701E+00   -5.9348611526750341E+00    1.8985190756254100E+00
Ar    1.9049277223463204E+01    2.5568147226191917E+00    2.4258941990058420E+00
Ar    5.2086894402111321E+00   -1.0218088185720328E+01    5.5954406209071648E+00
Ar    4.4537092676592653E+00    3.5412092445766383E+00   -4.4539068472964063E+00
Ar    2.7711630139214578E+00    2.4563714871812201E+00    6.3460838477064190E+00
Ar    2.4964215565639304E+01    4.3693493640376539E+00    1.2934274899496573E+01
Ar   -1.1498513219278270E+00    4.1511004022634364E+00    5.8381448867399657E+00
     &END COORD
     &VELOCITY
          -6.4154707981354744E-05    5.9463201030160817E-05    3.8072298658768125E-06
          -1.1190799303858598E-04    4.5280760590207163E-05    2.7142857129648784E-06
          -3.5307820247581861E-07   -6.1534987131181887E-05   -5.1322023409823465E-05
           2.5401239607203318E-06    1.4176400356870185E-05   -1.1162122187050148E-05
          -1.3238223768682612E-05   -6.5926855221932760E-05    5.6303067164811235E-05
          -1.1152870027412113E-05    7.1455286620487514E-06   -3.7279511067511966E-05
          -6.2677506261546671E-06   -5.8331099195145934E-05   -5.3588532448511580E-05
           7.8682019944047908E-05   -9.4831017908285098E-05   -6.1478542608541469E-05
           1.3924186664675107E-04   -2.6463813735969755E-05    1.6091262887675463E-04
          -1.0030707270203700E-04   -2.7222700912498097E-05   -4.3378734304853932E-05
          -1.7707927602231556E-05   -6.8215044234245231E-06    8.3967487816067859E-06
           9.2311975487263765E-05   -1.2573749603575311E-05   -1.6579512674455931E-04
          -6.7252929051840304E-06    2.8675155348097839E-05   -5.1837207761567457E-05
          -2.1551737896652378E-05   -8.7091039645568793E-05    4.1635623400245410E-05
           2.4646994471543445E-05   -1.2442082498587516E-04    9.5661695933900315E-05
          -6.4945652358829468E-05   -3.8548746835429099E-06   -1.4762167280938640E-04
           4.4507877919600916E-06    5.2790445775908599E-05   -7.8823171997333843E-05
           3.4578816001849444E-05    3.1744771912170759E-05   -5.6309550576660691E-05
           2.6928083662588790E-05    7.8065830642129419E-06   -2.7912963475590628E-06
           1.7292903240253668E-04    3.9757012934772223E-05    1.8324023367029129E-05
           3.2668792928782746E-05    7.5947083584948651E-05    5.3396744409307344E-05
           6.6372371056942599E-05    1.6602601317219296E-05    5.5478242186418015E-05
          -1.1710009728616277E-05    2.2855542975447736E-05    2.7596964348709744E-05
          -2.7117196927253345E-05    5.9995195845699793E-06   -4.2628613691000137E-05
          -3.7082872628966240E-05    5.2464335926931325E-07    8.3279678161577824E-05
          -6.2449222205648275E-05   -7.6419446183219618E-05   -6.6369602548132768E-05
          -3.3621760832752136E-05    1.4476532015323312E-04    4.3440749982455612E-05
          -5.5917488948138983E-05   -9.8635757915163213E-05   -2.3400010326872996E-05
           1.5640954392810885E-05    2.4034327638404431E-05   -4.9702176832639351E-05
           6.7928438433581152E-05   -4.3702579968125922E-05   -8.0883457764080837E-05
          -2.9330455848861522E-05   -4.7766599539874875E-05    9.4749816647833904E-07
          -4.4112450436495063E-05    5.2486429830592897E-05    1.4073079612024371E-05
          -4.1305942581254969E-05   -5.6811579572342032E-05    4.3152506160829368E-06
           2.2576820939189836E-05    2.6893068225144170E-05    6.3020071282167523E-05
          -8.8953134443578666E-05   -5.5518242554510059E-05    3.5174139379626180E-05
          -4.9335845765342114E-06    3.5206814706426381E-05    5.1302238957406255E-05
           8.9404740342582825E-05   -1.2287378488861619E-04   -3.5145978759430440E-05
          -6.6929101553380094E-05   -5.3913110739532518E-05   -1.2499910847276377E-04
          -7.0967492462625786E-05   -7.3889201658836306E-06    9.1321640398993856E-06
           2.7421809466022505E-05   -2.0572435955415020E-05   -2.7796746980706516E-06
          -4.7648273184942619E-05   -8.7782088186396303E-05   -2.5600574489996165E-05
          -1.1855335035299283E-04    9.5008810958357496E-05   -7.2935149251180214E-05
           2.0187125406142290E-05   -4.0762069187554463E-05    1.4451212508388508E-04
          -2.9911375745455077E-05    5.7181336478718139E-06   -8.6631861591061400E-05
           3.8903672640224915E-05    6.3035108518810076E-05    2.4905231213652644E-06
           7.1089316479173729E-05    8.8237700060945134E-07    1.5465827167533537E-04
           2.5889301583844394E-05    1.2385512057236484E-05   -1.7779266400897426E-05
           8.5052102106256066E-05   -7.1610794967997532E-05   -5.6967794822098693E-05
          -7.8141058636361943E-05    3.8071038726388987E-05   -5.2099921002133063E-05
           2.9413319994623570E-05   -1.1939599512682978E-04   -6.3942759945932482E-05
           1.3574354249771631E-04   -2.3322812631344856E-05    5.7229640659101958E-05
          -5.3159024597951189E-05    1.4474031903464457E-04    4.0930941869678221E-05
          -1.3081159749002200E-04   -6.4930284184166789E-05    5.4899772963311424E-05
          -5.0377292008757312E-05   -2.6990782026155696E-05   -7.6057961782550229E-05
           2.5827751970014636E-05   -1.8615755837529171E-06   -6.9454259746559645E-05
           7.1264459530784058E-05    3.0522482447398095E-05   -7.3043142934360294E-06
           5.7657247361323079E-06    6.7576409998962262E-05    1.3084871045370314E-04
           1.6112717352957063E-05   -3.7172451765832875E-05    2.1882286452180103E-05
           2.9003924806918769E-06    7.1722751793110311E-05   -4.0888554631978276E-05
          -3.8054190709623636E-05   -1.4737867294482799E-04    7.6472782322539306E-05
          -3.1639687716822054E-05    1.0861015732185666E-04    9.1020270618385610E-06
          -9.5705236309531722E-05    5.1986777782623598E-05    3.3101984433360405E-05
          -5.0797048780729202E-06    1.5557338969874021E-05   -2.1022061872570831E-05
           2.8934650780827957E-05    3.5492164188400389E-05    4.4502970042211835E-05
          -2.1850014237352744E-05    5.4454238002106857E-05    1.2623795871984092E-04
           7.9716055985949797E-05    8.9345211127154014E-05   -5.3328605292601931E-05
           7.3337184227148598E-05    9.2095494460515069E-06   -7.1625233295164687E-05
           2.1338123983789128E-05    8.8312052531393654E-05   -6.8433506609467308E-05
          -1.7657672868631087E-05   -3.6777145069910956E-05   -2.2906009236568040E-05
          -2.9920753242176170E-05    9.6970400846884400E-05   -3.7350025114391578E-05
          -6.5616951807461030E-05    6.9322139657351450E-05    4.5690756177241806E-05
           5.2552442717672676E-05   -6.4543111676801252E-05    8.9025326801104267E-05
           1.7796141919295506E-05   -6.5651647937514771E-05    9.7868214459639953E-05
           6.5033408772276376E-06   -5.6259975080196075E-05    5.8217920196312156E-05
           7.8686677434257695E-05   -5.1969413812513400E-05   -3.7871495809089610E-05
           7.0648929445273260E-05    7.1015352829548764E-05   -7.2956798737242255E-06
          -7.9298317496493360E-07    8.1954476303553085E-05   -1.3478608762046262E-06
          -1.4347613854611383E-05    1.9346275341318278E-06   -1.0021444554395164E-04
           1.6866580447563324E-04    3.9989598635797650E-05    1.4144744700189891E-05
          -1.5070611949531560E-04    4.9865712758890867E-05   -7.5024941907098248E-05
           1.8066831945175601E-05    1.4097853706435866E-04   -1.9796820982348474E-05
          -2.4561399297130456E-05    8.5129917798043326E-05    2.7659619866529068E-05
          -1.0752265649101801E-04   -5.6206004304952076E-05   -6.3061383681430333E-07
          -2.9796711560744758E-05   -2.2357437984601786E-05   -5.1185120301225523E-05
           9.9147555672353377E-06   -6.5713988953336851E-05    8.7277313268283762E-05
          -4.3569663903409173E-05   -3.4683523420160906E-05   -4.5304177610697266E-05
          -1.1497380155371229E-05    1.2133220126673996E-05    8.6942618732539049E-05
           1.2667257586252181E-05    3.1603068512977357E-05    4.4856932986899339E-05
          -2.3967489514901629E-05    2.5759045457570025E-05    1.5911052881036172E-04
          -1.9528883069186636E-05    4.1025777857910409E-05    2.3026985491230677E-05
          -1.4230785464438349E-04   -9.8508654704719552E-06   -1.8950663293455381E-05
           7.3537494293370934E-05   -1.4521028150396604E-06    4.1226962695446169E-05
           7.6663132509253778E-06    1.2076530619966371E-04    5.3836397372243808E-06
           6.6801657423737072E-05    4.6346655579247586E-05    2.5756909299309404E-05
           1.6081142358465158E-04   -4.3024523719624387E-06   -7.8707784320968107E-05
          -1.5417261285404220E-05   -7.5466789961050918E-05   -2.0195869331082488E-05
           1.8158525048142118E-05    5.0583185961079746E-05   -2.8883513401394678E-05
          -1.2149750498622418E-04   -1.5334377290032532E-05    2.7167408118687489E-05
           6.5705548563425447E-05   -4.3583656782410473E-05    4.0451649360025471E-05
           8.6552202408756511E-05    1.0773691855547880E-05    6.2065863755079955E-06
          -5.3346951809979378E-05   -1.8359788494414555E-06    4.2537878442295504E-05
          -2.1124291770139729E-05   -1.8226593861829149E-05    1.5635477532690480E-06
           9.2875624312820890E-05   -3.2137720652834182E-05    8.1350058549360630E-05
          -6.3635067608683134E-05   -1.4693462136493605E-04   -4.1326346999796014E-05
          -3.7226542548939259E-05   -7.2471310392308039E-05   -3.6712330671563002E-07
           3.8758026693293792E-05   -2.8613435599116262E-05    3.6328151849586252E-05
          -9.7821805901233405E-07    5.4296129731387440E-05   -8.6696450676023394E-05
           1.2525730066682563E-05   -2.6977884127210224E-05   -1.2215298996921079E-04
     &END VELOCITY
     &TOPOLOGY
       NUMBER_OF_ATOMS  108
       MULTIPLE_UNIT_CELL  1 1 1
     &END TOPOLOGY
   &END SUBSYS
 &END FORCE_EVAL
