
&GLOBAL                  ! section to select the kind of calculation
   RUN_TYPE ENERGY       ! select type of calculation. In this case: ENERGY (=Single point calculation)
&END GLOBAL

&FORCE_EVAL              ! section with parameters and system description
  METHOD FIST            ! Molecular Mechanics method
  &MM                    ! specification of MM parameters 
    &FORCEFIELD          ! parameters needed to describe the potential 
    &SPLINE
    EMAX_SPLINE 10000    ! numeric parameter to ensure calculation stability. Should not be changed
    &END
        &NONBONDED       ! parameters for the non bonded interactions
          &LENNARD-JONES ! Lennard-Jones parameters
          atoms Ar Ar
          EPSILON    [K_e] 119.8
          SIGMA [angstrom]   3.401
          RCUT  [angstrom]  25.0
        &END LENNARD-JONES
      &END NONBONDED
      &CHARGE
        ATOM Ar
        CHARGE 0.0
      &END CHARGE
    &END FORCEFIELD
    &POISSON              ! solver for non periodic calculations
     PERIODIC NONE
      &EWALD
        EWALD_TYPE none
      &END EWALD
    &END POISSON
  &END MM
  &SUBSYS                 ! system description 
    &CELL
     ABC [angstrom] 10 10 10  
     PERIODIC NONE
    &END CELL
    &COORD                
      UNIT angstrom
      Ar  0 0 0
      Ar  0 0 6.000000
    &END COORD
   &END SUBSYS
&END FORCE_EVAL